//Dat File

outFile="MPVSBPP_SET1_IT200_ITV1_NT2_TS3_WT1_VT1_REP7";
m=200;
o=96;
p=3;
numVTypes=3;

demand = [11, 5, 3, 5, 6, 5, 4, 5, 7, 11, 10, 10, 3, 11, 5, 6, 9, 11, 11, 5, 8, 3, 6, 2, 9, 9, 2, 7, 5, 8, 11, 8, 9, 8, 2, 2, 7, 11, 9, 9, 1, 5, 8, 10, 3, 5, 1, 6, 10, 2, 3, 10, 5, 1, 6, 10, 6, 5, 8, 11, 4, 9, 2, 5, 8, 9, 8, 4, 7, 3, 8, 1, 2, 7, 4, 5, 8, 6, 9, 8, 3, 4, 1, 1, 11, 8, 6, 6, 8, 3, 8, 2, 9, 5, 10, 5, 8, 1, 8, 6, 1, 5, 7, 8, 10, 6, 1, 11, 7, 11, 10, 8, 3, 5, 4, 2, 7, 5, 7, 4, 10, 2, 10, 2, 4, 2, 11, 1, 6, 3, 1, 8, 6, 10, 1, 11, 9, 4, 4, 2, 3, 8, 5, 6, 8, 4, 2, 7, 9, 11, 14, 16, 12, 15, 14, 14, 18, 19, 12, 18, 19, 19, 14, 15, 15, 12, 19, 14, 15, 13, 13, 15, 18, 17, 14, 17, 13, 19, 17, 12, 18, 14, 12, 12, 13, 13, 19, 13, 18, 15, 15, 14, 12, 15, 14, 18, 18, 14, 14, 12];
Depot_Cap = [30000, 30000, 30000];
Tarif = [10, 3, 7];
VeicVolume = [100, 150, 200];
VeicCost = [100, 120, 140];
VeicType = [1, 1, 1, 1, 1, 1, 1, 1, 1, 1, 1, 1, 1, 1, 1, 1, 1, 1, 1, 1, 1, 1, 1, 1, 1, 1, 1, 1, 1, 1, 1, 1, 2, 2, 2, 2, 2, 2, 2, 2, 2, 2, 2, 2, 2, 2, 2, 2, 2, 2, 2, 2, 2, 2, 2, 2, 2, 2, 2, 2, 2, 2, 2, 2, 3, 3, 3, 3, 3, 3, 3, 3, 3, 3, 3, 3, 3, 3, 3, 3, 3, 3, 3, 3, 3, 3, 3, 3, 3, 3, 3, 3, 3, 3, 3, 3];
Elect_vehicle = [[70, 100, 30], [70, 100, 30], [70, 100, 30], [70, 100, 30], [70, 100, 30], [70, 100, 30], [70, 100, 30], [70, 100, 30], [70, 100, 30], [70, 100, 30], [70, 100, 30], [70, 100, 30], [70, 100, 30], [70, 100, 30], [70, 100, 30], [70, 100, 30], [70, 100, 30], [70, 100, 30], [70, 100, 30], [70, 100, 30], [70, 100, 30], [70, 100, 30], [70, 100, 30], [70, 100, 30], [70, 100, 30], [70, 100, 30], [70, 100, 30], [70, 100, 30], [70, 100, 30], [70, 100, 30], [70, 100, 30], [70, 100, 30], [80, 120, 30], [80, 120, 30], [80, 120, 30], [80, 120, 30], [80, 120, 30], [80, 120, 30], [80, 120, 30], [80, 120, 30], [80, 120, 30], [80, 120, 30], [80, 120, 30], [80, 120, 30], [80, 120, 30], [80, 120, 30], [80, 120, 30], [80, 120, 30], [80, 120, 30], [80, 120, 30], [80, 120, 30], [80, 120, 30], [80, 120, 30], [80, 120, 30], [80, 120, 30], [80, 120, 30], [80, 120, 30], [80, 120, 30], [80, 120, 30], [80, 120, 30], [80, 120, 30], [80, 120, 30], [80, 120, 30], [80, 120, 30], [90, 140, 40], [90, 140, 40], [90, 140, 40], [90, 140, 40], [90, 140, 40], [90, 140, 40], [90, 140, 40], [90, 140, 40], [90, 140, 40], [90, 140, 40], [90, 140, 40], [90, 140, 40], [90, 140, 40], [90, 140, 40], [90, 140, 40], [90, 140, 40], [90, 140, 40], [90, 140, 40], [90, 140, 40], [90, 140, 40], [90, 140, 40], [90, 140, 40], [90, 140, 40], [90, 140, 40], [90, 140, 40], [90, 140, 40], [90, 140, 40], [90, 140, 40], [90, 140, 40], [90, 140, 40], [90, 140, 40], [90, 140, 40]];